c "500186.clq"
p edge 100 1344
e 1 17
e 1 18
e 1 19
e 1 20
e 1 21
e 1 22
e 1 23
e 1 24
e 1 25
e 1 26
e 1 30
e 1 31
e 1 32
e 1 33
e 1 34
e 1 36
e 1 37
e 1 38
e 1 41
e 1 43
e 1 44
e 1 53
e 1 57
e 1 58
e 1 59
e 1 60
e 1 62
e 1 63
e 1 64
e 1 66
e 1 73
e 1 81
e 1 83
e 1 85
e 2 17
e 2 18
e 2 19
e 2 20
e 2 21
e 2 23
e 2 26
e 2 27
e 2 28
e 2 40
e 2 59
e 2 60
e 2 67
e 2 68
e 2 70
e 2 74
e 2 75
e 2 76
e 2 90
e 3 17
e 3 18
e 3 19
e 3 20
e 3 21
e 3 23
e 3 34
e 3 40
e 3 42
e 3 48
e 3 62
e 3 85
e 3 87
e 3 94
e 4 17
e 4 18
e 4 19
e 4 20
e 4 21
e 4 22
e 4 23
e 4 24
e 4 25
e 4 27
e 4 30
e 4 32
e 4 33
e 4 34
e 4 41
e 4 46
e 4 52
e 4 55
e 4 64
e 4 68
e 4 70
e 4 75
e 4 77
e 4 83
e 5 17
e 5 18
e 5 19
e 5 20
e 5 22
e 5 23
e 5 24
e 5 27
e 5 30
e 5 32
e 5 34
e 5 38
e 5 40
e 5 49
e 5 58
e 5 68
e 5 79
e 6 17
e 6 18
e 6 19
e 6 23
e 6 26
e 6 27
e 6 28
e 6 29
e 6 31
e 6 45
e 6 46
e 6 71
e 6 72
e 6 84
e 6 89
e 7 17
e 7 18
e 7 19
e 7 20
e 7 24
e 7 25
e 7 26
e 7 27
e 7 36
e 7 37
e 7 38
e 7 39
e 7 40
e 7 42
e 7 47
e 7 48
e 7 50
e 7 51
e 7 56
e 7 64
e 7 67
e 7 69
e 7 70
e 7 78
e 7 84
e 7 86
e 7 97
e 7 98
e 7 99
e 8 17
e 8 18
e 8 19
e 8 20
e 8 21
e 8 24
e 8 25
e 8 38
e 8 40
e 8 44
e 8 46
e 8 47
e 8 49
e 8 70
e 8 71
e 8 74
e 8 75
e 8 84
e 8 85
e 8 89
e 8 90
e 8 93
e 8 96
e 9 17
e 9 18
e 9 19
e 9 20
e 9 21
e 9 22
e 9 23
e 9 24
e 9 27
e 9 29
e 9 30
e 9 31
e 9 32
e 9 33
e 9 36
e 9 50
e 9 51
e 9 55
e 9 56
e 9 60
e 9 67
e 9 70
e 9 78
e 9 79
e 9 82
e 9 95
e 10 17
e 10 18
e 10 19
e 10 20
e 10 21
e 10 22
e 10 23
e 10 24
e 10 25
e 10 26
e 10 27
e 10 28
e 10 29
e 10 32
e 10 35
e 10 36
e 10 38
e 10 39
e 10 49
e 10 50
e 10 55
e 10 65
e 10 66
e 10 69
e 10 72
e 10 73
e 10 78
e 10 85
e 10 87
e 10 88
e 10 89
e 10 91
e 10 92
e 10 93
e 10 94
e 10 96
e 10 97
e 11 17
e 11 18
e 11 19
e 11 20
e 11 21
e 11 22
e 11 26
e 11 29
e 11 30
e 11 34
e 11 35
e 11 38
e 11 39
e 11 41
e 11 42
e 11 47
e 11 48
e 11 52
e 11 64
e 11 67
e 11 71
e 11 78
e 11 79
e 11 81
e 11 83
e 11 84
e 11 87
e 11 96
e 12 17
e 12 21
e 12 22
e 12 24
e 12 26
e 12 28
e 12 31
e 12 34
e 12 36
e 12 37
e 12 41
e 12 43
e 12 58
e 12 66
e 12 75
e 12 89
e 12 93
e 13 17
e 13 18
e 13 19
e 13 21
e 13 22
e 13 23
e 13 25
e 13 26
e 13 27
e 13 28
e 13 29
e 13 30
e 13 31
e 13 39
e 13 40
e 13 42
e 13 43
e 13 44
e 13 45
e 13 47
e 13 55
e 13 57
e 13 59
e 13 61
e 13 62
e 13 65
e 13 72
e 13 76
e 13 79
e 13 81
e 13 83
e 13 93
e 13 100
e 14 17
e 14 18
e 14 19
e 14 20
e 14 21
e 14 22
e 14 24
e 14 25
e 14 26
e 14 32
e 14 33
e 14 34
e 14 35
e 14 37
e 14 38
e 14 40
e 14 41
e 14 47
e 14 55
e 14 63
e 14 65
e 14 68
e 14 76
e 14 86
e 14 89
e 14 91
e 15 17
e 15 18
e 15 20
e 15 21
e 15 22
e 15 24
e 15 26
e 15 27
e 15 30
e 15 31
e 15 32
e 15 36
e 15 38
e 15 41
e 15 44
e 15 51
e 15 56
e 15 57
e 15 65
e 15 66
e 15 83
e 15 90
e 15 91
e 15 98
e 16 17
e 16 18
e 16 19
e 16 20
e 16 22
e 16 23
e 16 25
e 16 26
e 16 27
e 16 29
e 16 31
e 16 33
e 16 34
e 16 35
e 16 36
e 16 37
e 16 39
e 16 41
e 16 42
e 16 44
e 16 47
e 16 52
e 16 54
e 16 57
e 16 58
e 16 61
e 16 63
e 16 66
e 16 69
e 16 73
e 16 75
e 16 98
e 17 18
e 17 19
e 17 20
e 17 21
e 17 22
e 17 23
e 17 24
e 17 25
e 17 26
e 17 27
e 17 28
e 17 29
e 17 31
e 17 32
e 17 34
e 17 35
e 17 37
e 17 39
e 17 45
e 17 46
e 17 49
e 17 50
e 17 57
e 17 61
e 17 63
e 17 65
e 17 69
e 17 71
e 17 77
e 17 78
e 17 80
e 17 81
e 17 84
e 17 94
e 17 96
e 17 98
e 17 99
e 18 19
e 18 20
e 18 21
e 18 22
e 18 23
e 18 24
e 18 25
e 18 28
e 18 29
e 18 30
e 18 31
e 18 32
e 18 33
e 18 34
e 18 38
e 18 39
e 18 41
e 18 42
e 18 43
e 18 44
e 18 45
e 18 47
e 18 48
e 18 51
e 18 52
e 18 53
e 18 56
e 18 58
e 18 60
e 18 63
e 18 71
e 18 72
e 18 76
e 18 80
e 18 81
e 18 83
e 18 87
e 18 88
e 18 89
e 18 93
e 18 95
e 18 97
e 18 99
e 19 20
e 19 21
e 19 22
e 19 23
e 19 25
e 19 26
e 19 27
e 19 28
e 19 29
e 19 30
e 19 34
e 19 38
e 19 39
e 19 43
e 19 44
e 19 45
e 19 46
e 19 49
e 19 51
e 19 53
e 19 56
e 19 60
e 19 61
e 19 63
e 19 64
e 19 71
e 19 74
e 19 75
e 19 76
e 19 83
e 19 84
e 19 86
e 19 89
e 19 94
e 19 99
e 20 21
e 20 22
e 20 23
e 20 24
e 20 25
e 20 26
e 20 28
e 20 29
e 20 32
e 20 33
e 20 34
e 20 35
e 20 36
e 20 39
e 20 41
e 20 42
e 20 43
e 20 44
e 20 45
e 20 46
e 20 50
e 20 53
e 20 57
e 20 59
e 20 62
e 20 66
e 20 67
e 20 73
e 20 76
e 20 88
e 20 91
e 20 96
e 20 100
e 21 22
e 21 23
e 21 24
e 21 25
e 21 26
e 21 27
e 21 28
e 21 29
e 21 30
e 21 31
e 21 32
e 21 35
e 21 36
e 21 37
e 21 38
e 21 39
e 21 40
e 21 41
e 21 42
e 21 43
e 21 44
e 21 45
e 21 47
e 21 49
e 21 51
e 21 52
e 21 53
e 21 55
e 21 57
e 21 58
e 21 65
e 21 68
e 21 73
e 21 77
e 21 78
e 21 81
e 21 85
e 21 86
e 21 96
e 21 97
e 21 100
e 22 23
e 22 24
e 22 25
e 22 27
e 22 28
e 22 29
e 22 30
e 22 31
e 22 33
e 22 34
e 22 35
e 22 38
e 22 43
e 22 44
e 22 45
e 22 48
e 22 52
e 22 54
e 22 57
e 22 58
e 22 59
e 22 60
e 22 61
e 22 62
e 22 64
e 22 65
e 22 66
e 22 72
e 22 73
e 22 74
e 22 75
e 22 83
e 22 85
e 22 91
e 22 92
e 22 94
e 22 97
e 22 99
e 23 24
e 23 25
e 23 26
e 23 28
e 23 29
e 23 31
e 23 32
e 23 33
e 23 34
e 23 35
e 23 36
e 23 37
e 23 38
e 23 39
e 23 43
e 23 45
e 23 48
e 23 50
e 23 51
e 23 54
e 23 57
e 23 59
e 23 60
e 23 64
e 23 69
e 23 72
e 23 77
e 23 80
e 23 81
e 23 82
e 23 83
e 23 84
e 23 90
e 23 92
e 23 93
e 23 96
e 23 97
e 24 25
e 24 28
e 24 29
e 24 30
e 24 31
e 24 33
e 24 35
e 24 36
e 24 37
e 24 39
e 24 40
e 24 41
e 24 42
e 24 44
e 24 48
e 24 52
e 24 53
e 24 54
e 24 55
e 24 56
e 24 66
e 24 72
e 24 76
e 24 84
e 24 87
e 24 90
e 24 92
e 24 93
e 24 94
e 24 95
e 24 100
e 25 27
e 25 28
e 25 29
e 25 30
e 25 31
e 25 33
e 25 35
e 25 37
e 25 38
e 25 40
e 25 41
e 25 43
e 25 44
e 25 45
e 25 46
e 25 47
e 25 48
e 25 50
e 25 61
e 25 62
e 25 65
e 25 66
e 25 69
e 25 73
e 25 74
e 25 76
e 25 80
e 25 86
e 25 87
e 25 88
e 25 89
e 25 90
e 25 92
e 26 27
e 26 28
e 26 30
e 26 32
e 26 33
e 26 36
e 26 37
e 26 38
e 26 39
e 26 42
e 26 43
e 26 46
e 26 48
e 26 49
e 26 50
e 26 53
e 26 55
e 26 62
e 26 63
e 26 64
e 26 65
e 26 66
e 26 67
e 26 70
e 26 77
e 26 78
e 26 79
e 26 81
e 26 88
e 26 93
e 26 97
e 26 98
e 26 99
e 26 100
e 27 28
e 27 30
e 27 31
e 27 32
e 27 33
e 27 34
e 27 36
e 27 37
e 27 41
e 27 46
e 27 47
e 27 48
e 27 51
e 27 52
e 27 54
e 27 57
e 27 59
e 27 64
e 27 68
e 27 73
e 27 77
e 27 78
e 27 80
e 27 85
e 27 86
e 27 87
e 27 89
e 27 99
e 28 29
e 28 34
e 28 37
e 28 38
e 28 43
e 28 46
e 28 47
e 28 50
e 28 53
e 28 56
e 28 57
e 28 58
e 28 60
e 28 61
e 28 62
e 28 64
e 28 66
e 28 69
e 28 70
e 28 75
e 28 80
e 28 82
e 28 88
e 28 91
e 28 92
e 28 97
e 28 98
e 28 100
e 29 30
e 29 32
e 29 33
e 29 35
e 29 36
e 29 37
e 29 42
e 29 43
e 29 45
e 29 47
e 29 48
e 29 49
e 29 51
e 29 53
e 29 54
e 29 55
e 29 56
e 29 58
e 29 59
e 29 60
e 29 65
e 29 71
e 29 78
e 29 80
e 29 83
e 29 89
e 29 90
e 30 31
e 30 32
e 30 33
e 30 35
e 30 37
e 30 41
e 30 42
e 30 46
e 30 49
e 30 54
e 30 56
e 30 57
e 30 60
e 30 61
e 30 69
e 30 71
e 30 74
e 30 83
e 30 86
e 30 95
e 30 96
e 30 98
e 31 33
e 31 36
e 31 40
e 31 45
e 31 46
e 31 51
e 31 52
e 31 54
e 31 58
e 31 59
e 31 67
e 31 68
e 31 72
e 31 73
e 31 77
e 31 80
e 31 81
e 31 94
e 31 96
e 31 98
e 32 35
e 32 40
e 32 45
e 32 50
e 32 53
e 32 54
e 32 56
e 32 59
e 32 61
e 32 62
e 32 63
e 32 64
e 32 65
e 32 68
e 32 69
e 32 86
e 32 90
e 32 91
e 32 94
e 32 95
e 33 35
e 33 36
e 33 39
e 33 40
e 33 43
e 33 46
e 33 52
e 33 55
e 33 61
e 33 62
e 33 66
e 33 67
e 33 68
e 33 70
e 33 71
e 33 72
e 33 73
e 33 75
e 33 79
e 33 82
e 33 91
e 33 92
e 33 96
e 34 35
e 34 39
e 34 43
e 34 44
e 34 47
e 34 49
e 34 51
e 34 52
e 34 53
e 34 54
e 34 57
e 34 58
e 34 60
e 34 63
e 34 69
e 34 70
e 34 71
e 34 74
e 34 79
e 34 83
e 34 87
e 34 88
e 34 94
e 34 97
e 35 37
e 35 40
e 35 45
e 35 47
e 35 50
e 35 51
e 35 58
e 35 60
e 35 61
e 35 69
e 35 76
e 35 80
e 35 82
e 35 87
e 35 90
e 35 93
e 35 94
e 35 97
e 36 39
e 36 41
e 36 44
e 36 48
e 36 50
e 36 51
e 36 52
e 36 56
e 36 62
e 36 64
e 36 65
e 36 67
e 36 68
e 36 81
e 36 82
e 36 91
e 36 95
e 37 40
e 37 42
e 37 45
e 37 50
e 37 52
e 37 54
e 37 57
e 37 63
e 37 67
e 37 76
e 37 78
e 37 80
e 37 86
e 37 88
e 37 92
e 37 95
e 37 98
e 37 100
e 38 41
e 38 44
e 38 50
e 38 52
e 38 54
e 38 55
e 38 60
e 38 62
e 38 70
e 38 71
e 38 82
e 38 90
e 38 93
e 39 40
e 39 42
e 39 48
e 39 49
e 39 50
e 39 55
e 39 56
e 39 58
e 39 61
e 39 62
e 39 65
e 39 66
e 39 69
e 39 70
e 39 72
e 39 74
e 39 82
e 39 85
e 39 87
e 39 95
e 39 99
e 40 42
e 40 47
e 40 48
e 40 53
e 40 54
e 40 55
e 40 62
e 40 65
e 40 66
e 40 67
e 40 73
e 40 74
e 40 76
e 40 77
e 40 83
e 40 85
e 40 89
e 40 92
e 40 95
e 40 96
e 41 42
e 41 45
e 41 46
e 41 49
e 41 51
e 41 63
e 41 68
e 41 70
e 41 72
e 41 78
e 41 80
e 41 84
e 41 93
e 42 43
e 42 49
e 42 51
e 42 53
e 42 56
e 42 59
e 42 64
e 42 68
e 42 69
e 42 70
e 42 71
e 42 73
e 42 77
e 42 78
e 42 82
e 42 83
e 42 98
e 43 44
e 43 46
e 43 49
e 43 54
e 43 55
e 43 56
e 43 63
e 43 66
e 43 72
e 43 74
e 43 84
e 43 99
e 43 100
e 44 46
e 44 47
e 44 49
e 44 52
e 44 55
e 44 62
e 44 73
e 44 74
e 44 77
e 44 89
e 44 98
e 45 54
e 45 68
e 45 77
e 45 82
e 45 86
e 45 88
e 45 98
e 45 100
e 46 48
e 46 50
e 46 52
e 46 56
e 46 57
e 46 62
e 46 67
e 46 72
e 46 75
e 46 82
e 46 85
e 46 90
e 46 91
e 47 48
e 47 49
e 47 53
e 47 56
e 47 59
e 47 60
e 47 72
e 47 73
e 47 75
e 47 77
e 47 86
e 47 88
e 47 93
e 47 95
e 48 51
e 48 58
e 48 59
e 48 63
e 48 65
e 49 54
e 49 58
e 49 59
e 49 61
e 49 70
e 49 73
e 49 74
e 49 82
e 49 83
e 49 84
e 49 89
e 49 93
e 49 95
e 49 98
e 50 64
e 50 74
e 50 80
e 50 81
e 50 98
e 50 100
e 51 53
e 51 58
e 51 64
e 51 65
e 51 68
e 51 81
e 51 87
e 51 90
e 52 53
e 52 55
e 52 66
e 52 81
e 52 83
e 52 85
e 52 87
e 52 100
e 53 57
e 53 60
e 53 61
e 53 67
e 53 75
e 53 79
e 53 86
e 54 61
e 54 75
e 54 90
e 54 94
e 54 96
e 55 59
e 55 60
e 55 61
e 55 63
e 55 64
e 55 69
e 55 71
e 55 72
e 55 77
e 55 82
e 55 90
e 55 92
e 56 78
e 56 81
e 56 91
e 56 94
e 57 63
e 57 82
e 57 91
e 57 100
e 58 59
e 58 67
e 58 73
e 58 75
e 58 79
e 58 89
e 59 69
e 59 71
e 59 76
e 59 80
e 59 86
e 59 92
e 60 63
e 60 67
e 60 68
e 60 78
e 60 79
e 60 86
e 60 95
e 61 71
e 61 78
e 61 85
e 62 80
e 62 88
e 63 67
e 63 68
e 63 70
e 63 74
e 63 75
e 63 80
e 64 70
e 64 72
e 64 79
e 64 91
e 64 99
e 65 74
e 65 84
e 65 85
e 65 92
e 66 79
e 66 87
e 66 88
e 66 91
e 67 85
e 67 87
e 67 88
e 67 89
e 67 94
e 67 99
e 67 100
e 68 69
e 68 76
e 68 78
e 68 82
e 68 87
e 68 96
e 68 100
e 69 71
e 69 79
e 69 81
e 69 97
e 70 77
e 70 92
e 70 99
e 71 74
e 71 76
e 71 77
e 71 79
e 71 80
e 71 88
e 71 90
e 72 76
e 72 93
e 72 94
e 73 76
e 73 79
e 73 82
e 73 85
e 73 99
e 74 75
e 74 77
e 75 81
e 75 84
e 75 92
e 75 95
e 75 100
e 76 94
e 77 84
e 77 97
e 78 79
e 78 87
e 78 93
e 79 88
e 80 96
e 81 84
e 82 85
e 82 86
e 82 88
e 82 89
e 82 92
e 82 95
e 82 98
e 83 84
e 83 97
e 84 86
e 84 92
e 84 96
e 85 91
e 85 93
e 85 98
e 86 90
e 86 91
e 86 94
e 86 96
e 86 99
e 89 95
e 90 99
e 92 99
e 93 95
e 93 97
e 95 97
e 96 97
e 96 100
